p cnf 515 1297
c
c
c
p cnf 515 1297
c
c
c
46 3 0
-46 -3 0
47 4 0
-47 -4 0
48 1 0
-48 -1 0
49 2 0
-49 -2 0
50 9 0
-50 -9 0
51 10 0
-51 -10 0
52 16 0
-52 -16 0
53 15 0
-53 -15 0
54 14 0
-54 -14 0
55 13 0
-55 -13 0
56 12 0
-56 -12 0
57 22 0
-57 -22 0
58 21 0
-58 -21 0
59 20 0
-59 -20 0
60 19 0
-60 -19 0
61 18 0
-61 -18 0
62 17 0
-62 -17 0
63 7 0
-63 -7 0
64 5 0
-64 -5 0
-65 16 0
-65 15 0
65 -16 -15 0
-66 49 0
-66 48 0
66 -49 -48 0
-67 52 0
-67 53 0
67 -52 -53 0
68 -16 0
68 -3 0
-68 16 3 0
69 -14 0
69 -5 0
-69 14 5 0
70 -52 0
70 -49 0
-70 52 49 0
71 4 0
71 3 0
-71 -4 -3 0
72 2 0
72 1 0
-72 -2 -1 0
73 9 0
73 4 0
-73 -9 -4 0
74 13 0
74 12 0
-74 -13 -12 0
75 22 0
75 21 0
-75 -22 -21 0
76 4 0
76 46 0
-76 -4 -46 0
77 47 0
77 46 0
-77 -47 -46 0
78 47 0
78 3 0
-78 -47 -3 0
79 2 0
79 48 0
-79 -2 -48 0
80 52 0
80 50 0
-80 -52 -50 0
81 53 0
81 54 0
-81 -53 -54 0
82 74 0
82 16 0
-82 -74 -16 0
83 14 0
83 56 0
-83 -14 -56 0
84 56 0
84 48 0
-84 -56 -48 0
85 56 0
85 4 0
-85 -56 -4 0
86 57 0
86 58 0
-86 -57 -58 0
87 60 0
87 6 0
-87 -60 -6 0
88 54 0
88 61 0
-88 -54 -61 0
89 58 0
89 61 0
-89 -58 -61 0
90 61 0
90 62 0
-90 -61 -62 0
91 71 0
91 77 0
-91 -71 -77 0
92 78 0
92 9 0
-92 -78 -9 0
93 68 0
93 70 0
-93 -68 -70 0
94 75 0
94 86 0
-94 -75 -86 0
-95 -13 0
-95 -12 0
95 13 12 0
-96 -13 0
-96 -11 0
96 13 11 0
-97 -2 0
-97 -48 0
97 2 48 0
-98 -52 0
-98 -14 0
98 52 14 0
-99 -55 0
-99 -11 0
99 55 11 0
-100 -95 0
-100 -11 0
100 95 11 0
-101 -56 0
-101 -1 0
101 56 1 0
-102 -57 0
-102 -21 0
102 57 21 0
-103 -75 0
-103 -20 0
103 75 20 0
-104 -58 0
-104 -20 0
104 58 20 0
-105 -22 0
-105 -58 0
105 22 58 0
-106 -19 0
-106 -62 0
106 19 62 0
-107 -77 0
-107 -50 0
107 77 50 0
-108 -97 0
-108 -51 0
108 97 51 0
-109 -65 0
-109 -67 0
109 65 67 0
-110 -80 0
-110 -83 0
110 80 83 0
442 -89 0
442 -20 0
-442 89 20 0
441 -442 0
441 -19 0
-441 442 19 0
111 441 0
-111 -441 0
-112 -90 0
-112 -86 0
112 90 86 0
113 72 0
-113 -72 0
114 95 0
-114 -95 0
115 103 0
-115 -103 0
-116 101 0
-116 98 0
116 -101 -98 0
-117 72 0
-117 88 0
117 -72 -88 0
-118 71 0
-118 88 0
118 -71 -88 0
-119 109 0
-119 4 0
119 -109 -4 0
-120 110 0
-120 10 0
120 -110 -10 0
121 86 0
-121 -86 0
122 105 0
-122 -105 0
123 90 0
-123 -90 0
124 -95 0
124 -54 0
-124 95 54 0
125 -78 0
125 -16 0
-125 78 16 0
126 -83 0
126 -13 0
-126 83 13 0
127 -86 0
127 -59 0
-127 86 59 0
128 -91 0
128 -16 0
-128 91 16 0
129 -115 0
129 -63 0
-129 115 63 0
130 -94 0
130 -59 0
-130 94 59 0
131 106 0
-131 -106 0
132 92 0
-132 -92 0
133 112 0
-133 -112 0
134 97 0
134 16 0
-134 -97 -16 0
135 124 0
135 69 0
-135 -124 -69 0
136 102 0
136 47 0
-136 -102 -47 0
137 102 0
137 54 0
-137 -102 -54 0
138 105 0
138 49 0
-138 -105 -49 0
139 106 0
139 102 0
-139 -106 -102 0
140 106 0
140 59 0
-140 -106 -59 0
141 134 0
141 125 0
-141 -134 -125 0
142 61 0
142 126 0
-142 -61 -126 0
143 136 0
143 138 0
-143 -136 -138 0
144 111 0
144 14 0
-144 -111 -14 0
-444 123 0
-444 57 0
444 -123 -57 0
-443 444 0
-443 20 0
443 -444 -20 0
145 443 0
-145 -443 0
146 123 0
146 19 0
-146 -123 -19 0
147 134 0
147 128 0
-147 -134 -128 0
148 129 0
148 127 0
-148 -129 -127 0
149 137 0
149 130 0
-149 -137 -130 0
-150 -66 0
-150 -113 0
150 66 113 0
446 -71 0
446 -114 0
-446 71 114 0
445 -446 0
445 -22 0
-445 446 22 0
151 445 0
-151 -445 0
-152 -114 0
-152 -18 0
152 114 18 0
-153 -151 0
-153 -19 0
153 151 19 0
-154 -122 0
-154 -19 0
154 122 19 0
-155 -140 0
-155 -21 0
155 140 21 0
-156 -140 0
-156 -22 0
156 140 22 0
-157 -131 0
-157 -59 0
157 131 59 0
448 -131 0
448 -88 0
-448 131 88 0
447 -448 0
447 -94 0
-447 448 94 0
158 447 0
-158 -447 0
-159 -131 0
-159 -18 0
159 131 18 0
-160 -119 0
-160 -92 0
160 119 92 0
450 -90 0
450 -153 0
-450 90 153 0
449 -450 0
449 -21 0
-449 450 21 0
161 449 0
-161 -449 0
-162 -120 0
-162 -116 0
162 120 116 0
452 -133 0
452 -20 0
-452 133 20 0
451 -452 0
451 -60 0
-451 452 60 0
163 451 0
-163 -451 0
-164 -145 0
-164 -58 0
164 145 58 0
454 -87 0
454 -145 0
-454 87 145 0
453 -454 0
453 -21 0
-453 454 21 0
165 453 0
-165 -453 0
456 -146 0
456 -104 0
-456 146 104 0
455 -456 0
455 -22 0
-455 456 22 0
166 455 0
-166 -455 0
-167 -162 0
-167 -49 0
167 162 49 0
168 -136 0
168 -46 0
-168 136 46 0
169 -138 0
169 -48 0
-169 138 48 0
170 -144 0
170 -22 0
-170 144 22 0
171 140 0
-171 -140 0
172 141 0
-172 -141 0
173 145 0
-173 -145 0
174 146 0
-174 -146 0
175 155 0
-175 -155 0
176 156 0
-176 -156 0
177 157 0
-177 -157 0
178 159 0
-178 -159 0
179 160 0
-179 -160 0
180 164 0
-180 -164 0
181 165 0
-181 -165 0
182 166 0
-182 -166 0
-183 135 0
-183 61 0
183 -135 -61 0
-184 106 0
-184 143 0
184 -106 -143 0
-185 105 0
-185 157 0
185 -105 -157 0
-186 102 0
-186 157 0
186 -102 -157 0
-187 165 0
-187 81 0
187 -165 -81 0
-188 87 0
-188 173 0
188 -87 -173 0
-458 111 0
-458 151 0
458 -111 -151 0
-457 458 0
-457 62 0
457 -458 -62 0
189 457 0
-189 -457 0
-190 102 0
-190 174 0
190 -102 -174 0
191 168 0
191 169 0
-191 -168 -169 0
192 154 0
192 61 0
-192 -154 -61 0
193 154 0
193 17 0
-193 -154 -17 0
-460 155 0
-460 57 0
460 -155 -57 0
-459 460 0
-459 18 0
459 -460 -18 0
194 459 0
-194 -459 0
195 155 0
195 52 0
-195 -155 -52 0
-462 155 0
-462 142 0
462 -155 -142 0
-461 462 0
-461 22 0
461 -462 -22 0
196 461 0
-196 -461 0
197 156 0
197 16 0
-197 -156 -16 0
-464 156 0
-464 142 0
464 -156 -142 0
-463 464 0
-463 21 0
463 -464 -21 0
198 463 0
-198 -463 0
-466 171 0
-466 114 0
466 -171 -114 0
-465 466 0
-465 61 0
465 -466 -61 0
199 465 0
-199 -465 0
200 171 0
200 61 0
-200 -171 -61 0
201 161 0
201 59 0
-201 -161 -59 0
202 159 0
202 149 0
-202 -159 -149 0
203 164 0
203 19 0
-203 -164 -19 0
204 174 0
204 59 0
-204 -174 -59 0
205 174 0
205 148 0
-205 -174 -148 0
206 139 0
206 195 0
-206 -139 -195 0
207 193 0
207 197 0
-207 -193 -197 0
208 203 0
208 202 0
-208 -203 -202 0
209 203 0
-209 -203 0
210 181 0
-210 -181 0
-211 206 0
-211 71 0
211 -206 -71 0
-212 207 0
-212 72 0
212 -207 -72 0
-213 -183 0
-213 -20 0
213 183 20 0
-214 209 0
-214 64 0
214 -209 -64 0
468 -192 0
468 -14 0
-468 192 14 0
467 -468 0
467 -62 0
-467 468 62 0
215 467 0
-215 -467 0
-216 -192 0
-216 -59 0
216 192 59 0
470 -195 0
470 -88 0
-470 195 88 0
469 -470 0
469 -22 0
-469 470 22 0
217 469 0
-217 -469 0
-218 -175 0
-218 -54 0
218 175 54 0
-219 -196 0
-219 -78 0
219 196 78 0
-220 -84 0
-220 -197 0
220 84 197 0
472 -198 0
472 -48 0
-472 198 48 0
471 -472 0
471 -2 0
-471 472 2 0
221 471 0
-221 -471 0
-222 -176 0
-222 -14 0
222 176 14 0
-223 -176 0
-223 -54 0
223 176 54 0
-224 -199 0
-224 -57 0
224 199 57 0
-225 -200 0
-225 -13 0
225 200 13 0
-226 -200 0
-226 -3 0
226 200 3 0
-227 -177 0
-227 -94 0
227 177 94 0
-228 -178 0
-228 -137 0
228 178 137 0
-229 -180 0
-229 -72 0
229 180 72 0
-230 -204 0
-230 -57 0
230 204 57 0
-231 -219 0
-231 -221 0
231 219 221 0
-232 -184 0
-232 -227 0
232 184 227 0
-233 -212 0
-233 -158 0
233 212 158 0
234 194 0
-234 -194 0
235 195 0
-235 -195 0
236 197 0
-236 -197 0
237 199 0
-237 -199 0
238 202 0
-238 -202 0
-239 215 0
-239 16 0
239 -215 -16 0
-240 215 0
-240 52 0
240 -215 -52 0
-241 216 0
-241 17 0
241 -216 -17 0
-242 216 0
-242 72 0
242 -216 -72 0
-243 234 0
-243 8 0
243 -234 -8 0
244 -194 0
244 -53 0
-244 194 53 0
245 -196 0
245 -76 0
-245 196 76 0
246 -79 0
246 -198 0
-246 79 198 0
247 -181 0
247 -54 0
-247 181 54 0
248 -204 0
248 -21 0
-248 204 21 0
249 215 0
249 59 0
-249 -215 -59 0
250 152 0
250 218 0
-250 -152 -218 0
251 222 0
251 52 0
-251 -222 -52 0
-474 152 0
-474 223 0
474 -152 -223 0
-473 474 0
-473 1 0
473 -474 -1 0
252 473 0
-252 -473 0
253 224 0
253 21 0
-253 -224 -21 0
-476 121 0
-476 225 0
476 -121 -225 0
-475 476 0
-475 167 0
475 -476 -167 0
254 475 0
-254 -475 0
255 225 0
255 46 0
-255 -225 -46 0
-478 228 0
-478 16 0
478 -228 -16 0
-477 478 0
-477 59 0
477 -478 -59 0
256 477 0
-256 -477 0
257 194 0
257 249 0
-257 -194 -249 0
258 189 0
258 247 0
-258 -189 -247 0
259 194 0
259 248 0
-259 -194 -248 0
260 217 0
-260 -217 0
261 219 0
-261 -219 0
262 222 0
-262 -222 0
263 225 0
-263 -225 0
264 226 0
-264 -226 0
265 249 0
-265 -249 0
266 230 0
-266 -230 0
267 252 0
-267 -252 0
268 253 0
-268 -253 0
269 232 0
-269 -232 0
270 256 0
-270 -256 0
-271 234 0
-271 16 0
271 -234 -16 0
-272 234 0
-272 64 0
272 -234 -64 0
-273 235 0
-273 74 0
273 -235 -74 0
-274 218 0
-274 57 0
274 -218 -57 0
-275 236 0
-275 74 0
275 -236 -74 0
-276 220 0
-276 54 0
276 -220 -54 0
-277 237 0
-277 14 0
277 -237 -14 0
-278 226 0
-278 48 0
278 -226 -48 0
-279 227 0
-279 61 0
279 -227 -61 0
-280 227 0
-280 64 0
280 -227 -64 0
-281 229 0
-281 60 0
281 -229 -60 0
-282 230 0
-282 63 0
282 -230 -63 0
-283 230 0
-283 21 0
283 -230 -21 0
284 189 0
-284 -189 0
285 213 0
-285 -213 0
-286 -117 0
-286 -285 0
286 117 285 0
-287 -118 0
-287 -285 0
287 118 285 0
288 191 0
-288 -191 0
-289 -188 0
-289 -284 0
289 188 284 0
-290 -185 0
-290 -234 0
290 185 234 0
-291 -186 0
-291 -234 0
291 186 234 0
-292 -187 0
-292 -234 0
292 187 234 0
-293 -243 0
-293 -238 0
293 243 238 0
-294 -271 0
-294 -241 0
294 271 241 0
-295 -76 0
-295 -260 0
295 76 260 0
-296 -260 0
-296 -91 0
296 260 91 0
-297 -273 0
-297 -218 0
297 273 218 0
-298 -250 0
-298 -22 0
298 250 22 0
480 -78 0
480 -250 0
-480 78 250 0
479 -480 0
479 -108 0
-479 480 108 0
299 479 0
-299 -479 0
-300 -274 0
-300 -227 0
300 274 227 0
-301 -275 0
-301 -223 0
301 275 223 0
302 194 0
-302 -194 0
-303 -276 0
-303 -230 0
303 276 230 0
-304 -262 0
-304 -13 0
304 262 13 0
-305 -89 0
-305 -262 0
305 89 262 0
-306 -277 0
-306 -211 0
306 277 211 0
482 -83 0
482 -263 0
-482 83 263 0
481 -482 0
481 -288 0
-481 482 288 0
307 481 0
-307 -481 0
484 -84 0
484 -75 0
-484 84 75 0
483 -484 0
483 -255 0
-483 484 255 0
308 483 0
-308 -483 0
-309 -278 0
-309 -224 0
309 278 224 0
-310 -279 0
-310 -158 0
310 279 158 0
-311 -228 0
-311 -265 0
311 228 265 0
-312 -282 0
-312 -190 0
312 282 190 0
-313 -280 0
-313 -283 0
313 280 283 0
486 -208 0
486 -259 0
-486 208 259 0
485 -486 0
485 -230 0
-485 486 230 0
314 485 0
-314 -485 0
-315 -242 0
-315 -268 0
315 242 268 0
-316 -308 0
-316 -307 0
316 308 307 0
-317 -239 0
-317 -270 0
317 239 270 0
-318 -240 0
-318 -270 0
318 240 270 0
-319 93 0
-319 304 0
319 -93 -304 0
320 -193 0
320 -286 0
-320 193 286 0
321 -139 0
321 -287 0
-321 139 287 0
322 -249 0
322 -64 0
-322 249 64 0
323 -78 0
323 -260 0
-323 78 260 0
324 -85 0
324 -251 0
-324 85 251 0
325 -264 0
325 -57 0
-325 264 57 0
326 -293 0
326 -64 0
-326 293 64 0
327 -297 0
327 -4 0
-327 297 4 0
328 -301 0
328 -2 0
-328 301 2 0
329 295 0
-329 -295 0
330 -311 0
330 -16 0
-330 311 16 0
331 298 0
-331 -298 0
332 -329 0
332 -12 0
-332 329 12 0
333 314 0
-333 -314 0
334 304 0
-334 -304 0
335 305 0
-335 -305 0
336 308 0
-336 -308 0
-337 267 0
-337 58 0
337 -267 -58 0
-338 269 0
-338 18 0
338 -269 -18 0
-339 296 0
-339 56 0
339 -296 -56 0
-340 299 0
-340 9 0
340 -299 -9 0
341 245 0
341 320 0
-341 -245 -320 0
342 321 0
342 246 0
-342 -321 -246 0
343 254 0
343 322 0
-343 -254 -322 0
344 182 0
344 266 0
-344 -182 -266 0
345 295 0
345 55 0
-345 -295 -55 0
346 298 0
346 2 0
-346 -298 -2 0
347 298 0
347 51 0
-347 -298 -51 0
348 305 0
348 56 0
-348 -305 -56 0
349 305 0
349 150 0
-349 -305 -150 0
350 267 0
350 49 0
-350 -267 -49 0
351 233 0
351 306 0
-351 -233 -306 0
352 325 0
352 324 0
-352 -325 -324 0
353 292 0
353 309 0
-353 -292 -309 0
354 310 0
354 244 0
-354 -310 -244 0
-488 201 0
-488 203 0
488 -201 -203 0
-487 488 0
-487 312 0
487 -488 -312 0
355 487 0
-355 -487 0
-490 180 0
-490 231 0
490 -180 -231 0
-491 490 0
-491 313 0
491 -490 -313 0
-489 491 0
-489 289 0
489 -491 -289 0
356 489 0
-356 -489 0
357 205 0
357 326 0
-357 -205 -326 0
358 329 0
358 323 0
-358 -329 -323 0
359 327 0
359 170 0
-359 -327 -170 0
360 133 0
360 328 0
-360 -133 -328 0
361 347 0
361 350 0
-361 -347 -350 0
362 335 0
362 336 0
-362 -335 -336 0
363 317 0
363 290 0
-363 -317 -290 0
364 318 0
364 294 0
-364 -318 -294 0
365 182 0
365 330 0
-365 -182 -330 0
-366 -331 0
-366 -108 0
366 331 108 0
-367 -346 0
-367 -132 0
367 346 132 0
-368 -347 0
-368 -73 0
368 347 73 0
-369 -340 0
-369 -284 0
369 340 284 0
493 -89 0
493 -334 0
-493 89 334 0
492 -493 0
492 -56 0
-492 493 56 0
370 492 0
-370 -492 0
-371 -319 0
-371 -112 0
371 319 112 0
-372 -348 0
-372 -52 0
372 348 52 0
-373 -350 0
-373 -132 0
373 350 132 0
495 -359 0
495 -360 0
-495 359 360 0
494 -495 0
494 -230 0
-494 495 230 0
374 494 0
-374 -494 0
497 -258 0
497 -362 0
-497 258 362 0
496 -497 0
496 -307 0
-496 497 307 0
375 496 0
-375 -496 0
-376 361 0
-376 50 0
376 -361 -50 0
-377 373 0
-377 10 0
377 -373 -10 0
378 374 0
-378 -374 0
379 -348 0
379 -172 0
-379 348 172 0
380 -82 0
380 -349 0
-380 82 349 0
381 375 0
-381 -375 0
382 -345 0
382 -56 0
-382 345 56 0
383 368 0
-383 -368 0
384 372 0
-384 -372 0
385 353 0
-385 -353 0
386 365 0
-386 -365 0
387 -79 0
387 -384 0
-387 79 384 0
388 201 0
388 379 0
-388 -201 -379 0
389 336 0
389 380 0
-389 -336 -380 0
-499 291 0
-499 386 0
499 -291 -386 0
-498 499 0
-498 266 0
498 -499 -266 0
390 498 0
-390 -498 0
391 346 0
-391 -346 0
392 351 0
-392 -351 0
393 352 0
-393 -352 0
-394 358 0
-394 74 0
394 -358 -74 0
-395 179 0
-395 366 0
395 -179 -366 0
-396 367 0
-396 16 0
396 -367 -16 0
-397 147 0
-397 370 0
397 -147 -370 0
-398 -337 0
-398 -391 0
398 337 391 0
-399 370 0
-399 141 0
399 -370 -141 0
-400 372 0
-400 150 0
400 -372 -150 0
-401 -394 0
-401 -308 0
401 394 308 0
-402 -395 0
-402 -272 0
402 395 272 0
-403 -396 0
-403 -338 0
403 396 338 0
-404 -383 0
-404 -109 0
404 383 109 0
-405 -214 0
-405 -399 0
405 214 399 0
-406 -339 0
-406 -400 0
406 339 400 0
-407 -376 0
-407 -299 0
407 376 299 0
-408 -377 0
-408 -221 0
408 377 221 0
409 404 0
-409 -404 0
-501 393 0
-501 303 0
501 -393 -303 0
-500 501 0
-500 371 0
500 -501 -371 0
410 500 0
-410 -500 0
-503 385 0
-503 392 0
503 -385 -392 0
-502 503 0
-502 300 0
502 -503 -300 0
411 502 0
-411 -502 0
-505 401 0
-505 369 0
505 -401 -369 0
-504 505 0
-504 261 0
504 -505 -261 0
412 504 0
-412 -504 0
413 402 0
413 403 0
-413 -402 -403 0
414 389 0
-414 -389 0
415 315 0
415 405 0
-415 -315 -405 0
416 336 0
416 387 0
-416 -336 -387 0
417 -398 0
417 -73 0
-417 398 73 0
-507 205 0
-507 407 0
507 -205 -407 0
-508 507 0
-508 316 0
508 -507 -316 0
-506 508 0
-506 406 0
506 -508 -406 0
418 506 0
-418 -506 0
419 409 0
419 254 0
-419 -409 -254 0
420 409 0
420 382 0
-420 -409 -382 0
421 391 0
421 10 0
-421 -391 -10 0
-422 -357 0
-422 -416 0
422 357 416 0
-423 -397 0
-423 -419 0
423 397 419 0
-424 -420 0
-424 -343 0
424 420 343 0
425 -80 0
425 -421 0
-425 80 421 0
426 414 0
426 408 0
-426 -414 -408 0
427 409 0
427 425 0
-427 -409 -425 0
428 -421 0
428 -107 0
-428 421 107 0
429 424 0
-429 -424 0
430 423 0
-430 -423 0
431 422 0
431 332 0
-431 -422 -332 0
432 253 0
432 428 0
-432 -253 -428 0
-433 -281 0
-433 -426 0
433 281 426 0
434 415 0
-434 -415 0
435 383 0
435 417 0
-435 -383 -417 0
-436 -341 0
-436 -435 0
436 341 435 0
-510 436 0
-510 434 0
510 -436 -434 0
-509 510 0
-509 266 0
509 -510 -266 0
437 509 0
-437 -509 0
438 433 0
-438 -433 0
512 -432 0
512 -342 0
-512 432 342 0
511 -512 0
511 -388 0
-511 512 388 0
439 511 0
-439 -511 0
440 439 0
-440 -439 0
c
c
-513 163 96 0
-513 -163 -96 0
513 -163 96 0
513 163 -96 0
513 0
-514 163 96 0
-514 -163 -96 0
514 -163 96 0
514 163 -96 0
514 0
-515 163 96 0
-515 -163 -96 0
515 -163 96 0
515 163 -96 0
515 0
